50
99
0 1 36 0.42
0 2 49 0.78
0 3 33 0.81
0 4 26 0.72
0 5 37 0.61
0 6 32 0.47
0 7 43 0.7
0 8 30 0.6
0 9 37 0.67
0 10 59 0.65
0 11 28 0.41
0 12 20 0.52
0 13 25 0.46
0 14 53 0.45
0 15 43 0.6
0 16 35 0.62
0 17 30 0.64
0 18 38 0.42
0 19 41 0.64
0 20 28 0.6
0 21 20 0.64
0 22 49 0.76
0 23 45 0.54
0 24 39 0.43
0 25 34 0.62
0 26 30 0.77
0 27 30 0.6
0 28 25 0.47
0 29 29 0.48
0 30 30 0.47
0 31 22 0.46
0 32 39 0.68
0 33 35 0.55
0 34 47 0.62
0 35 48 0.66
0 36 20 0.68
0 37 44 0.74
0 38 21 0.59
0 39 21 0.8
0 40 49 0.78
0 41 35 0.58
0 42 27 0.44
0 43 39 0.75
0 44 38 0.7
0 45 43 0.68
0 46 41 0.79
0 47 31 0.54
0 48 33 0.47
0 49 36 0.71
1 2 26 0.48
1 3 32 0.72
1 4 34 0.62
1 5 34 0.41
1 6 20 0.73
1 7 22 0.78
1 8 44 0.51
1 9 30 0.42
1 10 36 0.46
1 11 40 0.55
1 12 27 0.6
1 13 42 0.52
1 14 29 0.73
1 15 38 0.57
1 16 55 0.73
1 17 27 0.44
1 18 46 0.7
1 19 34 0.69
1 20 38 0.44
1 21 36 0.47
1 22 31 0.63
1 23 48 0.51
1 24 37 0.78
1 25 25 0.55
1 26 34 0.6
1 27 47 0.66
1 28 26 0.73
1 29 59 0.73
1 30 35 0.41
1 31 31 0.75
1 32 42 0.76
1 33 23 0.79
1 34 20 0.72
1 35 21 0.49
1 36 44 0.8
1 37 25 0.58
1 38 49 0.78
1 39 47 0.66
1 40 51 0.49
1 41 43 0.58
1 42 25 0.76
1 43 39 0.62
1 44 49 0.56
1 45 20 0.81
1 46 30 0.48
1 47 46 0.8
1 48 43 0.81
1 49 31 0.65
2 3 43 0.42
2 4 45 0.66
2 5 37 0.33
2 6 32 0.72
2 7 35 0.73
2 8 41 0.71
2 9 24 0.56
2 10 45 0.64
2 11 42 0.39
2 12 41 0.78
2 13 49 0.6
2 14 33 0.52
2 15 24 0.7
2 16 40 0.72
2 17 28 0.57
2 18 26 0.72
2 19 59 0.35
2 20 31 0.61
2 21 45 0.63
2 22 21 0.63
2 23 21 0.51
2 24 31 0.58
2 25 36 0.48
2 26 46 0.8
2 27 42 0.69
2 28 29 0.69
2 29 32 0.7
2 30 28 0.57
2 31 25 0.8
2 32 30 0.79
2 33 34 0.64
2 34 35 0.74
2 35 46 0.53
2 36 39 0.5
2 37 55 0.3
2 38 25 0.61
2 39 22 0.52
2 40 20 0.76
2 41 35 0.61
2 42 36 0.43
2 43 37 0.61
2 44 32 0.79
2 45 31 0.55
2 46 30 0.54
2 47 20 0.58
2 48 27 0.77
2 49 42 0.42
3 4 52 0.52
3 5 35 0.66
3 6 47 0.58
3 7 23 0.48
3 8 56 0.62
3 9 33 0.42
3 10 35 0.64
3 11 27 0.44
3 12 26 0.59
3 13 32 0.45
3 14 23 0.44
3 15 24 0.76
3 16 23 0.43
3 17 24 0.79
3 18 48 0.55
3 19 46 0.79
3 20 39 0.54
3 21 44 0.47
3 22 43 0.67
3 23 47 0.8
3 24 26 0.46
3 25 46 0.68
3 26 21 0.49
3 27 32 0.63
3 28 43 0.46
3 29 25 0.62
3 30 22 0.8
3 31 34 0.79
3 32 36 0.79
3 33 45 0.44
3 34 33 0.59
3 35 37 0.65
3 36 24 0.78
3 37 29 0.79
3 38 45 0.72
3 39 37 0.56
3 40 33 0.56
3 41 25 0.55
3 42 47 0.42
3 43 22 0.57
3 44 39 0.54
3 45 37 0.61
3 46 21 0.56
3 47 53 0.41
3 48 47 0.59
3 49 48 0.64
4 5 48 0.6
4 6 41 0.52
4 7 26 0.64
4 8 42 0.79
4 9 42 0.71
4 10 48 0.64
4 11 46 0.53
4 12 38 0.44
4 13 46 0.7
4 14 41 0.67
4 15 46 0.45
4 16 32 0.77
4 17 38 0.67
4 18 47 0.73
4 19 46 0.48
4 20 41 0.68
4 21 48 0.62
4 22 47 0.73
4 23 39 0.55
4 24 28 0.51
4 25 26 0.67
4 26 38 0.77
4 27 20 0.72
4 28 29 0.57
4 29 21 0.61
4 30 43 0.8
4 31 44 0.44
4 32 36 0.71
4 33 42 0.43
4 34 36 0.79
4 35 24 0.78
4 36 36 0.48
4 37 20 0.52
4 38 53 0.59
4 39 31 0.49
4 40 34 0.79
4 41 45 0.42
4 42 24 0.58
4 43 30 0.46
4 44 31 0.59
4 45 23 0.6
4 46 44 0.63
4 47 30 0.59
4 48 26 0.58
4 49 32 0.66
5 6 24 0.7
5 7 35 0.45
5 8 42 0.43
5 9 31 0.8
5 10 40 0.77
5 11 54 0.54
5 12 27 0.7
5 13 20 0.81
5 14 21 0.71
5 15 48 0.51
5 16 46 0.48
5 17 43 0.64
5 18 41 0.56
5 19 39 0.52
5 20 32 0.44
5 21 49 0.55
5 22 32 0.59
5 23 21 0.62
5 24 47 0.72
5 25 25 0.44
5 26 26 0.42
5 27 37 0.6
5 28 22 0.8
5 29 43 0.59
5 30 47 0.74
5 31 28 0.45
5 32 41 0.58
5 33 47 0.57
5 34 32 0.41
5 35 35 0.64
5 36 40 0.53
5 37 40 0.33
5 38 46 0.53
5 39 24 0.54
5 40 40 0.41
5 41 42 0.57
5 42 43 0.81
5 43 42 0.45
5 44 41 0.79
5 45 39 0.46
5 46 23 0.7
5 47 27 0.63
5 48 49 0.73
5 49 22 0.59
6 7 37 0.71
6 8 35 0.7
6 9 42 0.57
6 10 27 0.58
6 11 48 0.52
6 12 23 0.59
6 13 34 0.65
6 14 24 0.42
6 15 38 0.6
6 16 45 0.44
6 17 22 0.77
6 18 22 0.61
6 19 44 0.54
6 20 27 0.44
6 21 38 0.56
6 22 42 0.73
6 23 49 0.73
6 24 33 0.54
6 25 43 0.41
6 26 35 0.68
6 27 27 0.63
6 28 40 0.47
6 29 30 0.55
6 30 30 0.56
6 31 45 0.48
6 32 41 0.41
6 33 35 0.64
6 34 22 0.47
6 35 35 0.44
6 36 31 0.69
6 37 21 0.76
6 38 41 0.76
6 39 43 0.53
6 40 20 0.7
6 41 43 0.71
6 42 43 0.68
6 43 39 0.71
6 44 45 0.43
6 45 21 0.72
6 46 48 0.67
6 47 46 0.64
6 48 34 0.45
6 49 34 0.6
7 8 31 0.43
7 9 41 0.71
7 10 36 0.41
7 11 34 0.53
7 12 30 0.46
7 13 38 0.54
7 14 45 0.48
7 15 47 0.61
7 16 33 0.44
7 17 20 0.54
7 18 38 0.8
7 19 35 0.56
7 20 25 0.66
7 21 41 0.52
7 22 40 0.63
7 23 28 0.81
7 24 41 0.73
7 25 36 0.41
7 26 36 0.63
7 27 23 0.61
7 28 44 0.42
7 29 40 0.46
7 30 26 0.64
7 31 48 0.46
7 32 21 0.78
7 33 47 0.75
7 34 29 0.8
7 35 46 0.73
7 36 36 0.7
7 37 46 0.74
7 38 37 0.57
7 39 34 0.77
7 40 47 0.64
7 41 49 0.44
7 42 38 0.42
7 43 35 0.56
7 44 36 0.75
7 45 36 0.8
7 46 41 0.67
7 47 39 0.61
7 48 31 0.43
7 49 27 0.56
8 9 39 0.7
8 10 22 0.75
8 11 31 0.6
8 12 30 0.43
8 13 27 0.55
8 14 44 0.7
8 15 28 0.54
8 16 42 0.7
8 17 48 0.61
8 18 22 0.67
8 19 24 0.56
8 20 36 0.66
8 21 47 0.54
8 22 35 0.54
8 23 46 0.73
8 24 34 0.42
8 25 33 0.63
8 26 36 0.49
8 27 37 0.7
8 28 47 0.61
8 29 47 0.79
8 30 25 0.67
8 31 29 0.56
8 32 26 0.62
8 33 33 0.57
8 34 22 0.47
8 35 27 0.73
8 36 23 0.7
8 37 44 0.68
8 38 56 0.49
8 39 49 0.62
8 40 28 0.47
8 41 28 0.71
8 42 40 0.81
8 43 30 0.69
8 44 38 0.73
8 45 35 0.61
8 46 48 0.51
8 47 58 0.62
8 48 28 0.43
8 49 30 0.57
9 10 27 0.73
9 11 22 0.48
9 12 42 0.7
9 13 38 0.5
9 14 38 0.49
9 15 30 0.43
9 16 41 0.42
9 17 46 0.67
9 18 23 0.72
9 19 45 0.49
9 20 49 0.66
9 21 25 0.67
9 22 27 0.58
9 23 55 0.42
9 24 28 0.59
9 25 46 0.7
9 26 24 0.48
9 27 43 0.57
9 28 32 0.6
9 29 57 0.58
9 30 35 0.49
9 31 49 0.61
9 32 44 0.41
9 33 20 0.49
9 34 34 0.59
9 35 36 0.75
9 36 40 0.44
9 37 37 0.68
9 38 48 0.42
9 39 31 0.57
9 40 51 0.62
9 41 32 0.8
9 42 36 0.59
9 43 45 0.71
9 44 34 0.6
9 45 34 0.62
9 46 28 0.74
9 47 22 0.68
9 48 42 0.72
9 49 40 0.52
10 11 28 0.51
10 12 40 0.61
10 13 22 0.44
10 14 35 0.66
10 15 47 0.72
10 16 45 0.45
10 17 41 0.7
10 18 23 0.75
10 19 44 0.52
10 20 20 0.54
10 21 26 0.76
10 22 36 0.61
10 23 32 0.74
10 24 31 0.42
10 25 37 0.54
10 26 22 0.44
10 27 39 0.73
10 28 40 0.52
10 29 22 0.77
10 30 55 0.54
10 31 30 0.45
10 32 25 0.59
10 33 32 0.49
10 34 41 0.71
10 35 28 0.64
10 36 25 0.58
10 37 30 0.63
10 38 24 0.54
10 39 30 0.57
10 40 23 0.57
10 41 44 0.45
10 42 44 0.56
10 43 23 0.41
10 44 53 0.7
10 45 31 0.61
10 46 46 0.67
10 47 26 0.62
10 48 23 0.78
10 49 31 0.69
11 12 44 0.41
11 13 46 0.7
11 14 30 0.54
11 15 24 0.8
11 16 21 0.63
11 17 36 0.66
11 18 27 0.72
11 19 41 0.42
11 20 41 0.75
11 21 37 0.58
11 22 46 0.73
11 23 35 0.6
11 24 20 0.59
11 25 21 0.68
11 26 47 0.42
11 27 36 0.73
11 28 49 0.61
11 29 34 0.51
11 30 29 0.54
11 31 22 0.49
11 32 36 0.7
11 33 21 0.77
11 34 42 0.48
11 35 44 0.41
11 36 31 0.55
11 37 45 0.35
11 38 41 0.79
11 39 30 0.47
11 40 38 0.63
11 41 45 0.76
11 42 21 0.59
11 43 27 0.64
11 44 27 0.76
11 45 36 0.55
11 46 26 0.49
11 47 43 0.66
11 48 26 0.43
11 49 46 0.59
12 13 39 0.52
12 14 23 0.49
12 15 23 0.58
12 16 43 0.75
12 17 48 0.6
12 18 26 0.55
12 19 22 0.76
12 20 29 0.61
12 21 41 0.81
12 22 32 0.59
12 23 49 0.72
12 24 32 0.74
12 25 36 0.53
12 26 39 0.73
12 27 35 0.66
12 28 49 0.5
12 29 38 0.44
12 30 42 0.41
12 31 23 0.58
12 32 38 0.42
12 33 28 0.67
12 34 22 0.45
12 35 39 0.46
12 36 36 0.44
12 37 37 0.65
12 38 46 0.44
12 39 24 0.58
12 40 47 0.57
12 41 23 0.7
12 42 37 0.74
12 43 48 0.7
12 44 45 0.47
12 45 31 0.69
12 46 21 0.49
12 47 48 0.43
12 48 24 0.52
12 49 32 0.65
13 14 44 0.63
13 15 43 0.65
13 16 31 0.81
13 17 38 0.53
13 18 28 0.54
13 19 37 0.49
13 20 37 0.62
13 21 52 0.7
13 22 33 0.5
13 23 38 0.5
13 24 39 0.69
13 25 35 0.65
13 26 25 0.41
13 27 49 0.65
13 28 34 0.52
13 29 35 0.49
13 30 25 0.64
13 31 28 0.68
13 32 33 0.48
13 33 37 0.66
13 34 43 0.71
13 35 26 0.62
13 36 32 0.62
13 37 45 0.57
13 38 43 0.8
13 39 25 0.5
13 40 26 0.41
13 41 25 0.47
13 42 27 0.7
13 43 59 0.81
13 44 25 0.44
13 45 36 0.73
13 46 21 0.71
13 47 44 0.58
13 48 24 0.55
13 49 43 0.56
14 15 22 0.69
14 16 23 0.65
14 17 27 0.53
14 18 49 0.78
14 19 31 0.63
14 20 27 0.74
14 21 22 0.62
14 22 36 0.51
14 23 49 0.72
14 24 41 0.65
14 25 25 0.72
14 26 34 0.76
14 27 25 0.49
14 28 27 0.41
14 29 22 0.57
14 30 53 0.42
14 31 37 0.55
14 32 45 0.8
14 33 37 0.42
14 34 47 0.8
14 35 37 0.56
14 36 46 0.57
14 37 47 0.45
14 38 31 0.57
14 39 44 0.49
14 40 33 0.78
14 41 37 0.47
14 42 46 0.58
14 43 42 0.8
14 44 50 0.64
14 45 20 0.67
14 46 57 0.78
14 47 32 0.41
14 48 47 0.63
14 49 30 0.79
15 16 34 0.43
15 17 42 0.5
15 18 26 0.43
15 19 29 0.48
15 20 39 0.78
15 21 48 0.7
15 22 32 0.54
15 23 40 0.44
15 24 33 0.71
15 25 46 0.56
15 26 25 0.57
15 27 29 0.47
15 28 20 0.42
15 29 41 0.43
15 30 20 0.57
15 31 31 0.78
15 32 44 0.41
15 33 30 0.44
15 34 35 0.53
15 35 28 0.7
15 36 25 0.53
15 37 35 0.41
15 38 22 0.62
15 39 46 0.53
15 40 22 0.61
15 41 48 0.64
15 42 34 0.69
15 43 47 0.44
15 44 31 0.73
15 45 26 0.55
15 46 39 0.63
15 47 34 0.49
15 48 33 0.5
15 49 49 0.7
16 17 36 0.5
16 18 42 0.73
16 19 41 0.79
16 20 44 0.48
16 21 24 0.63
16 22 46 0.76
16 23 41 0.53
16 24 36 0.49
16 25 49 0.78
16 26 36 0.44
16 27 26 0.61
16 28 48 0.72
16 29 35 0.72
16 30 43 0.68
16 31 45 0.54
16 32 47 0.55
16 33 38 0.73
16 34 38 0.51
16 35 49 0.55
16 36 42 0.51
16 37 47 0.54
16 38 42 0.47
16 39 35 0.71
16 40 36 0.43
16 41 42 0.52
16 42 37 0.8
16 43 48 0.64
16 44 44 0.79
16 45 46 0.67
16 46 38 0.61
16 47 37 0.57
16 48 40 0.46
16 49 33 0.43
17 18 43 0.78
17 19 35 0.7
17 20 35 0.69
17 21 26 0.51
17 22 46 0.76
17 23 40 0.44
17 24 59 0.63
17 25 24 0.42
17 26 36 0.73
17 27 34 0.65
17 28 34 0.71
17 29 22 0.52
17 30 47 0.46
17 31 22 0.61
17 32 31 0.48
17 33 41 0.57
17 34 41 0.47
17 35 28 0.66
17 36 43 0.8
17 37 24 0.51
17 38 38 0.75
17 39 37 0.48
17 40 48 0.52
17 41 54 0.65
17 42 44 0.52
17 43 28 0.57
17 44 29 0.53
17 45 39 0.6
17 46 21 0.52
17 47 34 0.68
17 48 57 0.56
17 49 40 0.73
18 19 30 0.41
18 20 49 0.49
18 21 32 0.65
18 22 31 0.52
18 23 41 0.64
18 24 22 0.41
18 25 20 0.55
18 26 42 0.51
18 27 46 0.63
18 28 52 0.47
18 29 33 0.67
18 30 44 0.43
18 31 55 0.41
18 32 44 0.46
18 33 45 0.62
18 34 52 0.33
18 35 49 0.41
18 36 27 0.5
18 37 21 0.64
18 38 43 0.57
18 39 57 0.47
18 40 28 0.52
18 41 34 0.41
18 42 55 0.51
18 43 24 0.51
18 44 20 0.46
18 45 32 0.68
18 46 30 0.54
18 47 36 0.42
18 48 48 0.57
18 49 39 0.71
19 20 44 0.56
19 21 34 0.56
19 22 26 0.55
19 23 43 0.56
19 24 47 0.76
19 25 48 0.49
19 26 44 0.67
19 27 49 0.78
19 28 37 0.81
19 29 37 0.61
19 30 28 0.65
19 31 44 0.78
19 32 27 0.62
19 33 33 0.52
19 34 35 0.68
19 35 46 0.6
19 36 31 0.56
19 37 55 0.34
19 38 41 0.72
19 39 27 0.41
19 40 39 0.77
19 41 23 0.77
19 42 38 0.47
19 43 42 0.64
19 44 36 0.8
19 45 54 0.53
19 46 30 0.7
19 47 48 0.56
19 48 26 0.72
19 49 30 0.51
20 21 23 0.65
20 22 44 0.48
20 23 46 0.6
20 24 59 0.7
20 25 32 0.74
20 26 38 0.45
20 27 37 0.42
20 28 40 0.42
20 29 41 0.7
20 30 32 0.57
20 31 40 0.79
20 32 40 0.8
20 33 36 0.75
20 34 36 0.59
20 35 27 0.51
20 36 44 0.77
20 37 29 0.46
20 38 41 0.62
20 39 23 0.42
20 40 24 0.44
20 41 59 0.54
20 42 28 0.5
20 43 42 0.7
20 44 37 0.54
20 45 36 0.44
20 46 37 0.8
20 47 28 0.69
20 48 42 0.8
20 49 39 0.8
21 22 41 0.59
21 23 36 0.63
21 24 43 0.54
21 25 35 0.5
21 26 47 0.45
21 27 22 0.49
21 28 39 0.59
21 29 27 0.76
21 30 39 0.73
21 31 44 0.45
21 32 42 0.52
21 33 37 0.61
21 34 46 0.43
21 35 32 0.69
21 36 35 0.72
21 37 45 0.73
21 38 38 0.74
21 39 21 0.55
21 40 48 0.71
21 41 45 0.74
21 42 42 0.65
21 43 34 0.66
21 44 35 0.64
21 45 45 0.62
21 46 45 0.58
21 47 38 0.45
21 48 34 0.43
21 49 43 0.78
22 23 30 0.77
22 24 43 0.45
22 25 35 0.63
22 26 34 0.52
22 27 54 0.47
22 28 20 0.42
22 29 29 0.45
22 30 40 0.58
22 31 21 0.65
22 32 42 0.54
22 33 49 0.81
22 34 24 0.78
22 35 46 0.5
22 36 40 0.46
22 37 33 0.78
22 38 25 0.48
22 39 29 0.43
22 40 29 0.76
22 41 27 0.43
22 42 34 0.74
22 43 49 0.72
22 44 38 0.69
22 45 25 0.42
22 46 47 0.71
22 47 49 0.43
22 48 45 0.73
22 49 42 0.66
23 24 27 0.62
23 25 44 0.68
23 26 26 0.73
23 27 37 0.65
23 28 45 0.69
23 29 30 0.57
23 30 45 0.66
23 31 48 0.69
23 32 44 0.51
23 33 33 0.43
23 34 44 0.78
23 35 36 0.5
23 36 31 0.53
23 37 30 0.57
23 38 22 0.68
23 39 23 0.66
23 40 50 0.45
23 41 26 0.77
23 42 34 0.72
23 43 34 0.65
23 44 33 0.62
23 45 34 0.67
23 46 29 0.45
23 47 23 0.48
23 48 47 0.71
23 49 32 0.48
24 25 30 0.51
24 26 22 0.6
24 27 46 0.49
24 28 41 0.64
24 29 33 0.45
24 30 28 0.46
24 31 31 0.7
24 32 29 0.79
24 33 55 0.54
24 34 35 0.69
24 35 33 0.63
24 36 47 0.52
24 37 48 0.68
24 38 27 0.57
24 39 30 0.61
24 40 28 0.67
24 41 30 0.52
24 42 38 0.76
24 43 39 0.58
24 44 40 0.41
24 45 49 0.63
24 46 36 0.55
24 47 41 0.6
24 48 56 0.55
24 49 36 0.7
25 26 33 0.49
25 27 48 0.45
25 28 32 0.74
25 29 38 0.44
25 30 31 0.5
25 31 32 0.71
25 32 47 0.62
25 33 30 0.68
25 34 41 0.56
25 35 24 0.46
25 36 46 0.47
25 37 47 0.49
25 38 22 0.65
25 39 29 0.67
25 40 41 0.69
25 41 46 0.53
25 42 22 0.58
25 43 44 0.59
25 44 44 0.45
25 45 36 0.53
25 46 45 0.55
25 47 20 0.7
25 48 46 0.54
25 49 33 0.75
26 27 39 0.6
26 28 53 0.42
26 29 49 0.54
26 30 44 0.7
26 31 52 0.33
26 32 32 0.51
26 33 24 0.61
26 34 31 0.55
26 35 31 0.81
26 36 25 0.58
26 37 33 0.76
26 38 44 0.51
26 39 34 0.5
26 40 42 0.44
26 41 41 0.54
26 42 42 0.32
26 43 43 0.73
26 44 39 0.61
26 45 20 0.65
26 46 21 0.54
26 47 26 0.68
26 48 39 0.53
26 49 41 0.73
27 28 31 0.78
27 29 47 0.58
27 30 48 0.77
27 31 27 0.8
27 32 30 0.55
27 33 47 0.81
27 34 37 0.73
27 35 33 0.45
27 36 28 0.56
27 37 43 0.74
27 38 34 0.66
27 39 31 0.52
27 40 21 0.48
27 41 26 0.41
27 42 45 0.7
27 43 44 0.63
27 44 23 0.46
27 45 34 0.45
27 46 23 0.78
27 47 31 0.46
27 48 33 0.56
27 49 54 0.46
28 29 36 0.76
28 30 34 0.53
28 31 46 0.49
28 32 41 0.65
28 33 39 0.77
28 34 51 0.41
28 35 35 0.67
28 36 43 0.5
28 37 33 0.71
28 38 21 0.63
28 39 32 0.29
28 40 34 0.77
28 41 20 0.74
28 42 39 0.41
28 43 32 0.75
28 44 44 0.65
28 45 38 0.5
28 46 26 0.48
28 47 22 0.46
28 48 22 0.62
28 49 44 0.6
29 30 32 0.76
29 31 33 0.76
29 32 31 0.8
29 33 37 0.46
29 34 27 0.7
29 35 27 0.8
29 36 33 0.52
29 37 37 0.77
29 38 20 0.77
29 39 23 0.44
29 40 31 0.75
29 41 48 0.79
29 42 21 0.44
29 43 33 0.78
29 44 37 0.5
29 45 44 0.45
29 46 28 0.51
29 47 24 0.63
29 48 22 0.76
29 49 45 0.47
30 31 26 0.51
30 32 35 0.71
30 33 39 0.61
30 34 30 0.41
30 35 30 0.59
30 36 37 0.78
30 37 22 0.58
30 38 30 0.67
30 39 49 0.51
30 40 22 0.7
30 41 32 0.78
30 42 44 0.56
30 43 34 0.48
30 44 51 0.74
30 45 33 0.41
30 46 30 0.69
30 47 34 0.54
30 48 37 0.49
30 49 46 0.51
31 32 31 0.71
31 33 28 0.54
31 34 48 0.5
31 35 25 0.56
31 36 25 0.7
31 37 36 0.69
31 38 45 0.42
31 39 30 0.45
31 40 35 0.59
31 41 39 0.44
31 42 41 0.4
31 43 33 0.79
31 44 27 0.6
31 45 47 0.76
31 46 24 0.58
31 47 25 0.72
31 48 33 0.42
31 49 46 0.51
32 33 24 0.66
32 34 44 0.54
32 35 53 0.47
32 36 32 0.69
32 37 26 0.43
32 38 36 0.45
32 39 26 0.69
32 40 28 0.51
32 41 36 0.59
32 42 47 0.66
32 43 49 0.8
32 44 37 0.78
32 45 44 0.67
32 46 29 0.49
32 47 31 0.55
32 48 38 0.64
32 49 48 0.42
33 34 35 0.41
33 35 27 0.78
33 36 20 0.62
33 37 21 0.73
33 38 41 0.43
33 39 47 0.72
33 40 34 0.76
33 41 37 0.69
33 42 26 0.44
33 43 45 0.55
33 44 21 0.79
33 45 21 0.62
33 46 34 0.59
33 47 29 0.43
33 48 53 0.78
33 49 36 0.76
34 35 40 0.44
34 36 46 0.44
34 37 38 0.59
34 38 23 0.75
34 39 35 0.44
34 40 26 0.44
34 41 34 0.57
34 42 30 0.52
34 43 21 0.69
34 44 24 0.46
34 45 20 0.64
34 46 29 0.66
34 47 22 0.53
34 48 26 0.76
34 49 41 0.58
35 36 24 0.55
35 37 42 0.59
35 38 29 0.72
35 39 22 0.45
35 40 44 0.45
35 41 35 0.66
35 42 36 0.58
35 43 36 0.7
35 44 40 0.5
35 45 27 0.71
35 46 36 0.62
35 47 43 0.78
35 48 37 0.51
35 49 40 0.58
36 37 38 0.55
36 38 47 0.61
36 39 46 0.7
36 40 37 0.49
36 41 43 0.69
36 42 39 0.56
36 43 37 0.59
36 44 38 0.63
36 45 50 0.45
36 46 35 0.77
36 47 33 0.59
36 48 28 0.6
36 49 46 0.56
37 38 42 0.56
37 39 22 0.75
37 40 40 0.65
37 41 49 0.57
37 42 24 0.66
37 43 20 0.5
37 44 43 0.66
37 45 41 0.45
37 46 40 0.8
37 47 40 0.58
37 48 38 0.45
37 49 38 0.55
38 39 20 0.45
38 40 23 0.48
38 41 42 0.8
38 42 49 0.57
38 43 30 0.64
38 44 35 0.54
38 45 41 0.52
38 46 31 0.55
38 47 58 0.68
38 48 32 0.7
38 49 27 0.49
39 40 38 0.67
39 41 41 0.63
39 42 34 0.29
39 43 44 0.51
39 44 32 0.62
39 45 26 0.63
39 46 45 0.46
39 47 38 0.47
39 48 39 0.65
39 49 40 0.67
40 41 20 0.42
40 42 46 0.41
40 43 30 0.67
40 44 33 0.66
40 45 32 0.46
40 46 39 0.46
40 47 30 0.67
40 48 31 0.67
40 49 40 0.67
41 42 35 0.51
41 43 47 0.53
41 44 42 0.54
41 45 42 0.61
41 46 47 0.65
41 47 20 0.46
41 48 59 0.76
41 49 20 0.73
42 43 33 0.72
42 44 22 0.43
42 45 46 0.81
42 46 41 0.41
42 47 42 0.69
42 48 33 0.47
42 49 29 0.62
43 44 28 0.53
43 45 26 0.7
43 46 20 0.73
43 47 43 0.54
43 48 35 0.64
43 49 22 0.54
44 45 44 0.76
44 46 49 0.58
44 47 35 0.73
44 48 41 0.53
44 49 40 0.46
45 46 22 0.58
45 47 42 0.42
45 48 48 0.66
45 49 48 0.62
46 47 49 0.75
46 48 28 0.43
46 49 22 0.6
47 48 26 0.59
47 49 48 0.49
48 49 31 0.57